(set-logic QF_LRA)
(declare-fun X0 () Real )
(declare-fun Y0 () Real )
(declare-fun X1 () Real )
(declare-fun Y1 () Real )
(declare-fun X2 () Real )
(declare-fun Y2 () Real )
(declare-fun X3 () Real )
(declare-fun Y3 () Real )
(declare-fun X4 () Real )
(declare-fun Y4 () Real )
(declare-fun X5 () Real )
(declare-fun Y5 () Real )
(declare-fun X6 () Real )
(declare-fun Y6 () Real )
(declare-fun X7 () Real )
(declare-fun Y7 () Real )
(declare-fun X8 () Real )
(declare-fun Y8 () Real )
(declare-fun X9 () Real )
(declare-fun Y9 () Real )
(declare-fun X10 () Real )
(declare-fun Y10 () Real )
(declare-fun X11 () Real )
(declare-fun Y11 () Real )
(declare-fun X12 () Real )
(declare-fun Y12 () Real )
(declare-fun X13 () Real )
(declare-fun Y13 () Real )
(declare-fun X14 () Real )
(declare-fun Y14 () Real )
(declare-fun Z () Real )
(assert ( and  
( or ( <= ( + X0 67 ) X1 )  ( <= ( + X1 69 ) X0 )  ( <= ( + Y0 42 ) Y1 )  ( <= ( + Y1 99 ) Y0 )  )
( or ( <= ( + X0 67 ) X2 )  ( <= ( + X2 99 ) X0 )  ( <= ( + Y0 42 ) Y2 )  ( <= ( + Y2 28 ) Y0 )  )
( or ( <= ( + X0 67 ) X3 )  ( <= ( + X3 96 ) X0 )  ( <= ( + Y0 42 ) Y3 )  ( <= ( + Y3 51 ) Y0 )  )
( or ( <= ( + X0 67 ) X4 )  ( <= ( + X4 70 ) X0 )  ( <= ( + Y0 42 ) Y4 )  ( <= ( + Y4 1 ) Y0 )  )
( or ( <= ( + X0 67 ) X5 )  ( <= ( + X5 63 ) X0 )  ( <= ( + Y0 42 ) Y5 )  ( <= ( + Y5 60 ) Y0 )  )
( or ( <= ( + X0 67 ) X6 )  ( <= ( + X6 4 ) X0 )  ( <= ( + Y0 42 ) Y6 )  ( <= ( + Y6 23 ) Y0 )  )
( or ( <= ( + X0 67 ) X7 )  ( <= ( + X7 43 ) X0 )  ( <= ( + Y0 42 ) Y7 )  ( <= ( + Y7 68 ) Y0 )  )
( or ( <= ( + X0 67 ) X8 )  ( <= ( + X8 42 ) X0 )  ( <= ( + Y0 42 ) Y8 )  ( <= ( + Y8 18 ) Y0 )  )
( or ( <= ( + X0 67 ) X9 )  ( <= ( + X9 17 ) X0 )  ( <= ( + Y0 42 ) Y9 )  ( <= ( + Y9 98 ) Y0 )  )
( or ( <= ( + X0 67 ) X10 )  ( <= ( + X10 50 ) X0 )  ( <= ( + Y0 42 ) Y10 )  ( <= ( + Y10 66 ) Y0 )  )
( or ( <= ( + X0 67 ) X11 )  ( <= ( + X11 47 ) X0 )  ( <= ( + Y0 42 ) Y11 )  ( <= ( + Y11 10 ) Y0 )  )
( or ( <= ( + X0 67 ) X12 )  ( <= ( + X12 3 ) X0 )  ( <= ( + Y0 42 ) Y12 )  ( <= ( + Y12 69 ) Y0 )  )
( or ( <= ( + X0 67 ) X13 )  ( <= ( + X13 79 ) X0 )  ( <= ( + Y0 42 ) Y13 )  ( <= ( + Y13 38 ) Y0 )  )
( or ( <= ( + X0 67 ) X14 )  ( <= ( + X14 67 ) X0 )  ( <= ( + Y0 42 ) Y14 )  ( <= ( + Y14 87 ) Y0 )  )
( or ( <= ( + X1 69 ) X2 )  ( <= ( + X2 99 ) X1 )  ( <= ( + Y1 99 ) Y2 )  ( <= ( + Y2 28 ) Y1 )  )
( or ( <= ( + X1 69 ) X3 )  ( <= ( + X3 96 ) X1 )  ( <= ( + Y1 99 ) Y3 )  ( <= ( + Y3 51 ) Y1 )  )
( or ( <= ( + X1 69 ) X4 )  ( <= ( + X4 70 ) X1 )  ( <= ( + Y1 99 ) Y4 )  ( <= ( + Y4 1 ) Y1 )  )
( or ( <= ( + X1 69 ) X5 )  ( <= ( + X5 63 ) X1 )  ( <= ( + Y1 99 ) Y5 )  ( <= ( + Y5 60 ) Y1 )  )
( or ( <= ( + X1 69 ) X6 )  ( <= ( + X6 4 ) X1 )  ( <= ( + Y1 99 ) Y6 )  ( <= ( + Y6 23 ) Y1 )  )
( or ( <= ( + X1 69 ) X7 )  ( <= ( + X7 43 ) X1 )  ( <= ( + Y1 99 ) Y7 )  ( <= ( + Y7 68 ) Y1 )  )
( or ( <= ( + X1 69 ) X8 )  ( <= ( + X8 42 ) X1 )  ( <= ( + Y1 99 ) Y8 )  ( <= ( + Y8 18 ) Y1 )  )
( or ( <= ( + X1 69 ) X9 )  ( <= ( + X9 17 ) X1 )  ( <= ( + Y1 99 ) Y9 )  ( <= ( + Y9 98 ) Y1 )  )
( or ( <= ( + X1 69 ) X10 )  ( <= ( + X10 50 ) X1 )  ( <= ( + Y1 99 ) Y10 )  ( <= ( + Y10 66 ) Y1 )  )
( or ( <= ( + X1 69 ) X11 )  ( <= ( + X11 47 ) X1 )  ( <= ( + Y1 99 ) Y11 )  ( <= ( + Y11 10 ) Y1 )  )
( or ( <= ( + X1 69 ) X12 )  ( <= ( + X12 3 ) X1 )  ( <= ( + Y1 99 ) Y12 )  ( <= ( + Y12 69 ) Y1 )  )
( or ( <= ( + X1 69 ) X13 )  ( <= ( + X13 79 ) X1 )  ( <= ( + Y1 99 ) Y13 )  ( <= ( + Y13 38 ) Y1 )  )
( or ( <= ( + X1 69 ) X14 )  ( <= ( + X14 67 ) X1 )  ( <= ( + Y1 99 ) Y14 )  ( <= ( + Y14 87 ) Y1 )  )
( or ( <= ( + X2 99 ) X3 )  ( <= ( + X3 96 ) X2 )  ( <= ( + Y2 28 ) Y3 )  ( <= ( + Y3 51 ) Y2 )  )
( or ( <= ( + X2 99 ) X4 )  ( <= ( + X4 70 ) X2 )  ( <= ( + Y2 28 ) Y4 )  ( <= ( + Y4 1 ) Y2 )  )
( or ( <= ( + X2 99 ) X5 )  ( <= ( + X5 63 ) X2 )  ( <= ( + Y2 28 ) Y5 )  ( <= ( + Y5 60 ) Y2 )  )
( or ( <= ( + X2 99 ) X6 )  ( <= ( + X6 4 ) X2 )  ( <= ( + Y2 28 ) Y6 )  ( <= ( + Y6 23 ) Y2 )  )
( or ( <= ( + X2 99 ) X7 )  ( <= ( + X7 43 ) X2 )  ( <= ( + Y2 28 ) Y7 )  ( <= ( + Y7 68 ) Y2 )  )
( or ( <= ( + X2 99 ) X8 )  ( <= ( + X8 42 ) X2 )  ( <= ( + Y2 28 ) Y8 )  ( <= ( + Y8 18 ) Y2 )  )
( or ( <= ( + X2 99 ) X9 )  ( <= ( + X9 17 ) X2 )  ( <= ( + Y2 28 ) Y9 )  ( <= ( + Y9 98 ) Y2 )  )
( or ( <= ( + X2 99 ) X10 )  ( <= ( + X10 50 ) X2 )  ( <= ( + Y2 28 ) Y10 )  ( <= ( + Y10 66 ) Y2 )  )
( or ( <= ( + X2 99 ) X11 )  ( <= ( + X11 47 ) X2 )  ( <= ( + Y2 28 ) Y11 )  ( <= ( + Y11 10 ) Y2 )  )
( or ( <= ( + X2 99 ) X12 )  ( <= ( + X12 3 ) X2 )  ( <= ( + Y2 28 ) Y12 )  ( <= ( + Y12 69 ) Y2 )  )
( or ( <= ( + X2 99 ) X13 )  ( <= ( + X13 79 ) X2 )  ( <= ( + Y2 28 ) Y13 )  ( <= ( + Y13 38 ) Y2 )  )
( or ( <= ( + X2 99 ) X14 )  ( <= ( + X14 67 ) X2 )  ( <= ( + Y2 28 ) Y14 )  ( <= ( + Y14 87 ) Y2 )  )
( or ( <= ( + X3 96 ) X4 )  ( <= ( + X4 70 ) X3 )  ( <= ( + Y3 51 ) Y4 )  ( <= ( + Y4 1 ) Y3 )  )
( or ( <= ( + X3 96 ) X5 )  ( <= ( + X5 63 ) X3 )  ( <= ( + Y3 51 ) Y5 )  ( <= ( + Y5 60 ) Y3 )  )
( or ( <= ( + X3 96 ) X6 )  ( <= ( + X6 4 ) X3 )  ( <= ( + Y3 51 ) Y6 )  ( <= ( + Y6 23 ) Y3 )  )
( or ( <= ( + X3 96 ) X7 )  ( <= ( + X7 43 ) X3 )  ( <= ( + Y3 51 ) Y7 )  ( <= ( + Y7 68 ) Y3 )  )
( or ( <= ( + X3 96 ) X8 )  ( <= ( + X8 42 ) X3 )  ( <= ( + Y3 51 ) Y8 )  ( <= ( + Y8 18 ) Y3 )  )
( or ( <= ( + X3 96 ) X9 )  ( <= ( + X9 17 ) X3 )  ( <= ( + Y3 51 ) Y9 )  ( <= ( + Y9 98 ) Y3 )  )
( or ( <= ( + X3 96 ) X10 )  ( <= ( + X10 50 ) X3 )  ( <= ( + Y3 51 ) Y10 )  ( <= ( + Y10 66 ) Y3 )  )
( or ( <= ( + X3 96 ) X11 )  ( <= ( + X11 47 ) X3 )  ( <= ( + Y3 51 ) Y11 )  ( <= ( + Y11 10 ) Y3 )  )
( or ( <= ( + X3 96 ) X12 )  ( <= ( + X12 3 ) X3 )  ( <= ( + Y3 51 ) Y12 )  ( <= ( + Y12 69 ) Y3 )  )
( or ( <= ( + X3 96 ) X13 )  ( <= ( + X13 79 ) X3 )  ( <= ( + Y3 51 ) Y13 )  ( <= ( + Y13 38 ) Y3 )  )
( or ( <= ( + X3 96 ) X14 )  ( <= ( + X14 67 ) X3 )  ( <= ( + Y3 51 ) Y14 )  ( <= ( + Y14 87 ) Y3 )  )
( or ( <= ( + X4 70 ) X5 )  ( <= ( + X5 63 ) X4 )  ( <= ( + Y4 1 ) Y5 )  ( <= ( + Y5 60 ) Y4 )  )
( or ( <= ( + X4 70 ) X6 )  ( <= ( + X6 4 ) X4 )  ( <= ( + Y4 1 ) Y6 )  ( <= ( + Y6 23 ) Y4 )  )
( or ( <= ( + X4 70 ) X7 )  ( <= ( + X7 43 ) X4 )  ( <= ( + Y4 1 ) Y7 )  ( <= ( + Y7 68 ) Y4 )  )
( or ( <= ( + X4 70 ) X8 )  ( <= ( + X8 42 ) X4 )  ( <= ( + Y4 1 ) Y8 )  ( <= ( + Y8 18 ) Y4 )  )
( or ( <= ( + X4 70 ) X9 )  ( <= ( + X9 17 ) X4 )  ( <= ( + Y4 1 ) Y9 )  ( <= ( + Y9 98 ) Y4 )  )
( or ( <= ( + X4 70 ) X10 )  ( <= ( + X10 50 ) X4 )  ( <= ( + Y4 1 ) Y10 )  ( <= ( + Y10 66 ) Y4 )  )
( or ( <= ( + X4 70 ) X11 )  ( <= ( + X11 47 ) X4 )  ( <= ( + Y4 1 ) Y11 )  ( <= ( + Y11 10 ) Y4 )  )
( or ( <= ( + X4 70 ) X12 )  ( <= ( + X12 3 ) X4 )  ( <= ( + Y4 1 ) Y12 )  ( <= ( + Y12 69 ) Y4 )  )
( or ( <= ( + X4 70 ) X13 )  ( <= ( + X13 79 ) X4 )  ( <= ( + Y4 1 ) Y13 )  ( <= ( + Y13 38 ) Y4 )  )
( or ( <= ( + X4 70 ) X14 )  ( <= ( + X14 67 ) X4 )  ( <= ( + Y4 1 ) Y14 )  ( <= ( + Y14 87 ) Y4 )  )
( or ( <= ( + X5 63 ) X6 )  ( <= ( + X6 4 ) X5 )  ( <= ( + Y5 60 ) Y6 )  ( <= ( + Y6 23 ) Y5 )  )
( or ( <= ( + X5 63 ) X7 )  ( <= ( + X7 43 ) X5 )  ( <= ( + Y5 60 ) Y7 )  ( <= ( + Y7 68 ) Y5 )  )
( or ( <= ( + X5 63 ) X8 )  ( <= ( + X8 42 ) X5 )  ( <= ( + Y5 60 ) Y8 )  ( <= ( + Y8 18 ) Y5 )  )
( or ( <= ( + X5 63 ) X9 )  ( <= ( + X9 17 ) X5 )  ( <= ( + Y5 60 ) Y9 )  ( <= ( + Y9 98 ) Y5 )  )
( or ( <= ( + X5 63 ) X10 )  ( <= ( + X10 50 ) X5 )  ( <= ( + Y5 60 ) Y10 )  ( <= ( + Y10 66 ) Y5 )  )
( or ( <= ( + X5 63 ) X11 )  ( <= ( + X11 47 ) X5 )  ( <= ( + Y5 60 ) Y11 )  ( <= ( + Y11 10 ) Y5 )  )
( or ( <= ( + X5 63 ) X12 )  ( <= ( + X12 3 ) X5 )  ( <= ( + Y5 60 ) Y12 )  ( <= ( + Y12 69 ) Y5 )  )
( or ( <= ( + X5 63 ) X13 )  ( <= ( + X13 79 ) X5 )  ( <= ( + Y5 60 ) Y13 )  ( <= ( + Y13 38 ) Y5 )  )
( or ( <= ( + X5 63 ) X14 )  ( <= ( + X14 67 ) X5 )  ( <= ( + Y5 60 ) Y14 )  ( <= ( + Y14 87 ) Y5 )  )
( or ( <= ( + X6 4 ) X7 )  ( <= ( + X7 43 ) X6 )  ( <= ( + Y6 23 ) Y7 )  ( <= ( + Y7 68 ) Y6 )  )
( or ( <= ( + X6 4 ) X8 )  ( <= ( + X8 42 ) X6 )  ( <= ( + Y6 23 ) Y8 )  ( <= ( + Y8 18 ) Y6 )  )
( or ( <= ( + X6 4 ) X9 )  ( <= ( + X9 17 ) X6 )  ( <= ( + Y6 23 ) Y9 )  ( <= ( + Y9 98 ) Y6 )  )
( or ( <= ( + X6 4 ) X10 )  ( <= ( + X10 50 ) X6 )  ( <= ( + Y6 23 ) Y10 )  ( <= ( + Y10 66 ) Y6 )  )
( or ( <= ( + X6 4 ) X11 )  ( <= ( + X11 47 ) X6 )  ( <= ( + Y6 23 ) Y11 )  ( <= ( + Y11 10 ) Y6 )  )
( or ( <= ( + X6 4 ) X12 )  ( <= ( + X12 3 ) X6 )  ( <= ( + Y6 23 ) Y12 )  ( <= ( + Y12 69 ) Y6 )  )
( or ( <= ( + X6 4 ) X13 )  ( <= ( + X13 79 ) X6 )  ( <= ( + Y6 23 ) Y13 )  ( <= ( + Y13 38 ) Y6 )  )
( or ( <= ( + X6 4 ) X14 )  ( <= ( + X14 67 ) X6 )  ( <= ( + Y6 23 ) Y14 )  ( <= ( + Y14 87 ) Y6 )  )
( or ( <= ( + X7 43 ) X8 )  ( <= ( + X8 42 ) X7 )  ( <= ( + Y7 68 ) Y8 )  ( <= ( + Y8 18 ) Y7 )  )
( or ( <= ( + X7 43 ) X9 )  ( <= ( + X9 17 ) X7 )  ( <= ( + Y7 68 ) Y9 )  ( <= ( + Y9 98 ) Y7 )  )
( or ( <= ( + X7 43 ) X10 )  ( <= ( + X10 50 ) X7 )  ( <= ( + Y7 68 ) Y10 )  ( <= ( + Y10 66 ) Y7 )  )
( or ( <= ( + X7 43 ) X11 )  ( <= ( + X11 47 ) X7 )  ( <= ( + Y7 68 ) Y11 )  ( <= ( + Y11 10 ) Y7 )  )
( or ( <= ( + X7 43 ) X12 )  ( <= ( + X12 3 ) X7 )  ( <= ( + Y7 68 ) Y12 )  ( <= ( + Y12 69 ) Y7 )  )
( or ( <= ( + X7 43 ) X13 )  ( <= ( + X13 79 ) X7 )  ( <= ( + Y7 68 ) Y13 )  ( <= ( + Y13 38 ) Y7 )  )
( or ( <= ( + X7 43 ) X14 )  ( <= ( + X14 67 ) X7 )  ( <= ( + Y7 68 ) Y14 )  ( <= ( + Y14 87 ) Y7 )  )
( or ( <= ( + X8 42 ) X9 )  ( <= ( + X9 17 ) X8 )  ( <= ( + Y8 18 ) Y9 )  ( <= ( + Y9 98 ) Y8 )  )
( or ( <= ( + X8 42 ) X10 )  ( <= ( + X10 50 ) X8 )  ( <= ( + Y8 18 ) Y10 )  ( <= ( + Y10 66 ) Y8 )  )
( or ( <= ( + X8 42 ) X11 )  ( <= ( + X11 47 ) X8 )  ( <= ( + Y8 18 ) Y11 )  ( <= ( + Y11 10 ) Y8 )  )
( or ( <= ( + X8 42 ) X12 )  ( <= ( + X12 3 ) X8 )  ( <= ( + Y8 18 ) Y12 )  ( <= ( + Y12 69 ) Y8 )  )
( or ( <= ( + X8 42 ) X13 )  ( <= ( + X13 79 ) X8 )  ( <= ( + Y8 18 ) Y13 )  ( <= ( + Y13 38 ) Y8 )  )
( or ( <= ( + X8 42 ) X14 )  ( <= ( + X14 67 ) X8 )  ( <= ( + Y8 18 ) Y14 )  ( <= ( + Y14 87 ) Y8 )  )
( or ( <= ( + X9 17 ) X10 )  ( <= ( + X10 50 ) X9 )  ( <= ( + Y9 98 ) Y10 )  ( <= ( + Y10 66 ) Y9 )  )
( or ( <= ( + X9 17 ) X11 )  ( <= ( + X11 47 ) X9 )  ( <= ( + Y9 98 ) Y11 )  ( <= ( + Y11 10 ) Y9 )  )
( or ( <= ( + X9 17 ) X12 )  ( <= ( + X12 3 ) X9 )  ( <= ( + Y9 98 ) Y12 )  ( <= ( + Y12 69 ) Y9 )  )
( or ( <= ( + X9 17 ) X13 )  ( <= ( + X13 79 ) X9 )  ( <= ( + Y9 98 ) Y13 )  ( <= ( + Y13 38 ) Y9 )  )
( or ( <= ( + X9 17 ) X14 )  ( <= ( + X14 67 ) X9 )  ( <= ( + Y9 98 ) Y14 )  ( <= ( + Y14 87 ) Y9 )  )
( or ( <= ( + X10 50 ) X11 )  ( <= ( + X11 47 ) X10 )  ( <= ( + Y10 66 ) Y11 )  ( <= ( + Y11 10 ) Y10 )  )
( or ( <= ( + X10 50 ) X12 )  ( <= ( + X12 3 ) X10 )  ( <= ( + Y10 66 ) Y12 )  ( <= ( + Y12 69 ) Y10 )  )
( or ( <= ( + X10 50 ) X13 )  ( <= ( + X13 79 ) X10 )  ( <= ( + Y10 66 ) Y13 )  ( <= ( + Y13 38 ) Y10 )  )
( or ( <= ( + X10 50 ) X14 )  ( <= ( + X14 67 ) X10 )  ( <= ( + Y10 66 ) Y14 )  ( <= ( + Y14 87 ) Y10 )  )
( or ( <= ( + X11 47 ) X12 )  ( <= ( + X12 3 ) X11 )  ( <= ( + Y11 10 ) Y12 )  ( <= ( + Y12 69 ) Y11 )  )
( or ( <= ( + X11 47 ) X13 )  ( <= ( + X13 79 ) X11 )  ( <= ( + Y11 10 ) Y13 )  ( <= ( + Y13 38 ) Y11 )  )
( or ( <= ( + X11 47 ) X14 )  ( <= ( + X14 67 ) X11 )  ( <= ( + Y11 10 ) Y14 )  ( <= ( + Y14 87 ) Y11 )  )
( or ( <= ( + X12 3 ) X13 )  ( <= ( + X13 79 ) X12 )  ( <= ( + Y12 69 ) Y13 )  ( <= ( + Y13 38 ) Y12 )  )
( or ( <= ( + X12 3 ) X14 )  ( <= ( + X14 67 ) X12 )  ( <= ( + Y12 69 ) Y14 )  ( <= ( + Y14 87 ) Y12 )  )
( or ( <= ( + X13 79 ) X14 )  ( <= ( + X14 67 ) X13 )  ( <= ( + Y13 38 ) Y14 )  ( <= ( + Y14 87 ) Y13 )  )
( >= X0 0)
( <= ( + X0 67) Z)
( >= Y0 0)
( <= ( + Y0 42 ) 193)
( >= X1 0)
( <= ( + X1 69) Z)
( >= Y1 0)
( <= ( + Y1 99 ) 193)
( >= X2 0)
( <= ( + X2 99) Z)
( >= Y2 0)
( <= ( + Y2 28 ) 193)
( >= X3 0)
( <= ( + X3 96) Z)
( >= Y3 0)
( <= ( + Y3 51 ) 193)
( >= X4 0)
( <= ( + X4 70) Z)
( >= Y4 0)
( <= ( + Y4 1 ) 193)
( >= X5 0)
( <= ( + X5 63) Z)
( >= Y5 0)
( <= ( + Y5 60 ) 193)
( >= X6 0)
( <= ( + X6 4) Z)
( >= Y6 0)
( <= ( + Y6 23 ) 193)
( >= X7 0)
( <= ( + X7 43) Z)
( >= Y7 0)
( <= ( + Y7 68 ) 193)
( >= X8 0)
( <= ( + X8 42) Z)
( >= Y8 0)
( <= ( + Y8 18 ) 193)
( >= X9 0)
( <= ( + X9 17) Z)
( >= Y9 0)
( <= ( + Y9 98 ) 193)
( >= X10 0)
( <= ( + X10 50) Z)
( >= Y10 0)
( <= ( + Y10 66 ) 193)
( >= X11 0)
( <= ( + X11 47) Z)
( >= Y11 0)
( <= ( + Y11 10 ) 193)
( >= X12 0)
( <= ( + X12 3) Z)
( >= Y12 0)
( <= ( + Y12 69 ) 193)
( >= X13 0)
( <= ( + X13 79) Z)
( >= Y13 0)
( <= ( + Y13 38 ) 193)
( >= X14 0)
( <= ( + X14 67) Z)
( >= Y14 0)
( <= ( + Y14 87 ) 193)
) )
(minimize Z)
(check-sat)
